Instance name : R108
Authors : Bent & Van Hentenryck
Date :    2001
Reference : Technical Report, CS-01-06, Department of Computer Science, Brown University, September 2001.
Solution
Route 1 : 28 12 80 76 3 79 78 34 29 24 68 77
Route 2 : 31 88 10 62 11 64 63 90 32 30 70
Route 3 : 6 96 59 93 99 5 84 17 45 83 60 18 89
Route 4 : 52 7 48 82 8 46 47 36 49 19
Route 5 : 2 57 15 43 42 87 97 95 94 13 58
Route 6 : 50 33 81 51 9 35 71 65 66 20
Route 7 : 92 98 91 44 14 38 86 16 61 85 100 37
Route 8 : 73 72 75 56 23 67 39 55 25 54 26
Route 9 : 27 69 1 53 40 21 4 74 22 41